
Gurobi 12.0.2 (win64) logging started Wed Nov 26 15:29:30 2025

Set parameter LogFile to value "resultados DATA_1_n100m10b2d2\instancia_2_log.txt"
Set parameter TimeLimit to value 3600
Gurobi Optimizer version 12.0.2 build v12.0.2rc0 (win64 - Windows 10.0 (19045.2))

CPU model: Intel(R) Core(TM) i5-6300U CPU @ 2.40GHz, instruction set [SSE2|AVX|AVX2]
Thread count: 2 physical cores, 4 logical processors, using up to 4 threads

Non-default parameters:
TimeLimit  3600

Optimize a model with 14290 rows, 29461 columns and 67908048 nonzeros
Model fingerprint: 0xfa1f78ec
Variable types: 0 continuous, 29461 integer (29461 binary)
Coefficient statistics:
  Matrix range     [1e+00, 1e+00]
  Objective range  [3e-02, 2e-01]
  Bounds range     [1e+00, 1e+00]
  RHS range        [1e+00, 1e+01]
Found heuristic solution: objective 0.6812960
Presolve removed 0 rows and 0 columns (presolve time = 14s)...
Presolve removed 0 rows and 0 columns (presolve time = 15s)...
Presolve removed 0 rows and 0 columns (presolve time = 20s)...
Presolve removed 0 rows and 0 columns (presolve time = 28s)...
Presolve removed 0 rows and 0 columns (presolve time = 32s)...
Presolve removed 0 rows and 0 columns (presolve time = 37s)...
Presolve removed 0 rows and 0 columns (presolve time = 52s)...
Presolve removed 0 rows and 0 columns (presolve time = 61s)...
Presolve removed 0 rows and 2418 columns (presolve time = 65s)...
Presolve removed 0 rows and 4909 columns (presolve time = 70s)...
Presolve removed 0 rows and 7480 columns (presolve time = 75s)...
Presolve removed 0 rows and 9957 columns (presolve time = 80s)...
Presolve removed 0 rows and 12463 columns (presolve time = 85s)...
Presolve removed 0 rows and 15292 columns (presolve time = 90s)...
Presolve removed 0 rows and 19706 columns (presolve time = 95s)...
Presolve removed 0 rows and 27843 columns (presolve time = 106s)...
Presolve removed 41 rows and 27843 columns (presolve time = 110s)...
Presolve removed 41 rows and 27843 columns (presolve time = 116s)...
Presolve removed 41 rows and 27843 columns (presolve time = 120s)...
Presolve removed 41 rows and 27843 columns (presolve time = 125s)...
Presolve removed 41 rows and 27843 columns (presolve time = 130s)...
Presolve removed 41 rows and 27843 columns (presolve time = 135s)...
Presolve removed 41 rows and 27843 columns (presolve time = 140s)...
Presolve removed 41 rows and 27843 columns (presolve time = 145s)...
Presolve removed 41 rows and 27843 columns (presolve time = 150s)...
Presolve removed 41 rows and 27843 columns (presolve time = 155s)...
Presolve removed 41 rows and 27843 columns (presolve time = 160s)...
Presolve removed 41 rows and 27843 columns (presolve time = 165s)...
Presolve removed 41 rows and 27843 columns (presolve time = 170s)...
Presolve removed 41 rows and 27843 columns (presolve time = 175s)...
Presolve removed 41 rows and 27843 columns (presolve time = 180s)...
Presolve removed 41 rows and 27843 columns (presolve time = 185s)...
Presolve removed 41 rows and 27843 columns (presolve time = 190s)...
Presolve removed 41 rows and 27843 columns (presolve time = 195s)...
Presolve removed 41 rows and 27843 columns (presolve time = 200s)...
Presolve removed 41 rows and 27843 columns (presolve time = 205s)...
Presolve removed 41 rows and 27843 columns (presolve time = 210s)...
Presolve removed 41 rows and 27843 columns (presolve time = 215s)...
Presolve removed 41 rows and 27843 columns (presolve time = 220s)...
Presolve removed 41 rows and 27843 columns (presolve time = 225s)...
Presolve removed 41 rows and 27843 columns (presolve time = 230s)...
Presolve removed 41 rows and 27843 columns (presolve time = 235s)...
Presolve removed 41 rows and 27843 columns (presolve time = 240s)...
Presolve removed 41 rows and 27843 columns (presolve time = 245s)...
Presolve removed 41 rows and 27843 columns (presolve time = 250s)...
Presolve removed 41 rows and 27843 columns (presolve time = 255s)...
Presolve removed 41 rows and 27843 columns (presolve time = 260s)...
Presolve removed 41 rows and 27843 columns (presolve time = 265s)...
Presolve removed 41 rows and 27843 columns (presolve time = 270s)...
Presolve removed 41 rows and 27843 columns (presolve time = 275s)...
Presolve removed 41 rows and 27843 columns (presolve time = 280s)...
Presolve removed 41 rows and 27843 columns (presolve time = 285s)...
Presolve removed 41 rows and 27843 columns (presolve time = 290s)...
Presolve removed 41 rows and 27843 columns (presolve time = 295s)...
Presolve removed 41 rows and 27843 columns (presolve time = 300s)...
Presolve removed 41 rows and 27843 columns (presolve time = 305s)...
Presolve removed 41 rows and 27843 columns (presolve time = 310s)...
Presolve removed 41 rows and 27843 columns (presolve time = 315s)...
Presolve removed 41 rows and 27843 columns (presolve time = 320s)...
Presolve removed 41 rows and 27843 columns (presolve time = 325s)...
Presolve removed 41 rows and 27843 columns (presolve time = 330s)...
Presolve removed 41 rows and 27843 columns (presolve time = 335s)...
Presolve removed 41 rows and 27843 columns (presolve time = 340s)...
Presolve removed 41 rows and 27843 columns (presolve time = 345s)...
Presolve removed 41 rows and 27843 columns (presolve time = 350s)...
Presolve removed 41 rows and 27843 columns (presolve time = 355s)...
Presolve removed 41 rows and 27843 columns (presolve time = 360s)...
Presolve removed 41 rows and 27843 columns (presolve time = 365s)...
Presolve removed 41 rows and 27843 columns (presolve time = 370s)...
Presolve removed 41 rows and 27843 columns (presolve time = 375s)...
Presolve removed 41 rows and 27843 columns (presolve time = 380s)...
Presolve removed 41 rows and 27843 columns (presolve time = 385s)...
Presolve removed 41 rows and 27843 columns (presolve time = 390s)...
Presolve removed 41 rows and 27843 columns (presolve time = 395s)...
Presolve removed 41 rows and 27843 columns (presolve time = 400s)...
Presolve removed 41 rows and 27843 columns (presolve time = 405s)...
Presolve removed 41 rows and 27843 columns (presolve time = 410s)...
Presolve removed 41 rows and 27843 columns (presolve time = 415s)...
Presolve removed 41 rows and 27843 columns (presolve time = 420s)...
Presolve removed 41 rows and 27843 columns (presolve time = 425s)...
Presolve removed 41 rows and 27843 columns (presolve time = 430s)...
Presolve removed 41 rows and 27843 columns (presolve time = 435s)...
Presolve removed 41 rows and 27843 columns (presolve time = 440s)...
Sparsify removed 2346714 nonzeros (87%)
Presolve removed 1849 rows and 20553 columns
Presolve time: 444.75s
Presolved: 12441 rows, 8908 columns, 352396 nonzeros
Found heuristic solution: objective 0.1305600
Variable types: 6131 continuous, 2777 integer (1710 binary)

Root simplex log...

Iteration    Objective       Primal Inf.    Dual Inf.      Time
       0    6.6607256e+01   1.310570e+05   0.000000e+00    453s
    2555    2.8002536e+00   3.320503e+05   0.000000e+00    455s
    7061    1.0448495e+00   5.045940e+04   0.000000e+00    460s
    9988    9.4992349e-01   1.219881e+04   0.000000e+00    465s
   12549    9.1849695e-01   1.946970e+02   0.000000e+00    470s
   13640    9.1678686e-01   0.000000e+00   0.000000e+00    472s

Root relaxation: objective 9.167869e-01, 13640 iterations, 19.20 seconds (9.82 work units)

    Nodes    |    Current Node    |     Objective Bounds      |     Work
 Expl Unexpl |  Obj  Depth IntInf | Incumbent    BestBd   Gap | It/Node Time

     0     0    0.91679    0 1089    0.68130    0.91679  34.6%     -  475s
     0     0    0.91651    0 1139    0.68130    0.91651  34.5%     -  480s
     0     0    0.91619    0 1148    0.68130    0.91619  34.5%     -  484s
     0     0    0.91618    0 1165    0.68130    0.91618  34.5%     -  486s
     0     0    0.91618    0 1165    0.68130    0.91618  34.5%     -  489s
     0     0    0.91618    0 1149    0.68130    0.91618  34.5%     -  501s
H    0     0                       0.7900560    0.91618  16.0%     -  502s
H    0     0                       0.8353060    0.91618  9.68%     -  502s
     0     2    0.91618    0 1135    0.83531    0.91618  9.68%     -  509s
     1     4    0.91604    1 1077    0.83531    0.91618  9.68%   358  511s
     8    11    0.90166    4 1084    0.83531    0.91604  9.66%   689  517s
    13    18    0.90099    5 1061    0.83531    0.91604  9.66%   774  522s
    21    26    0.89231    7 1041    0.83531    0.91604  9.66%   694  526s
    31    35    0.88598    9 1019    0.83531    0.91604  9.66%   598  531s
    41    46    0.87989   11 1068    0.83531    0.91604  9.66%   584  536s
*   47    49              19       0.8720680    0.91604  5.04%   537  537s
    56    57     cutoff   13         0.87207    0.91604  5.04%   486  540s
    78    63    0.90133    3 1041    0.87207    0.91604  5.04%   400  545s
    84    69    0.89368    6 1032    0.87207    0.91604  5.04%   419  551s
    91    76    0.88326    7 1142    0.87207    0.91604  5.04%   428  556s
    96    82    0.89464    8 1067    0.87207    0.91604  5.04%   449  560s
   112    96    0.87890   13  946    0.87207    0.91604  5.04%   424  566s
   135   104    0.88140    7  651    0.87207    0.91604  5.04%   380  570s
   151   109    0.89688    3  962    0.87207    0.90259  3.50%   368  575s
   161   125    0.88834    5 1045    0.87207    0.90259  3.50%   374  581s
*  173   136               9       0.8723480    0.90259  3.47%   372  583s
   195   139    0.87997   12  906    0.87235    0.90259  3.47%   337  585s
   225   146    0.89119    8  882    0.87235    0.90193  3.39%   315  590s
   251   154    0.87413   11  389    0.87235    0.90132  3.32%   303  597s
   262   159    0.88063   14  453    0.87235    0.90116  3.30%   302  600s
   301   172    0.88890    7 1012    0.87235    0.90094  3.28%   286  607s
   308   180    0.88777    8  972    0.87235    0.90094  3.28%   289  610s
   336   180    0.87271   11 1032    0.87235    0.90080  3.26%   286  618s
   350   179    0.88034    8  914    0.87235    0.89897  3.05%   284  623s
   375   184    0.88829    7 1030    0.87235    0.89879  3.03%   277  627s
   399   182     cutoff   14         0.87235    0.89816  2.96%   270  631s
*  407   174               8       0.8740480    0.89816  2.76%   272  631s
   409   173    0.87842   12  235    0.87405    0.89688  2.61%   272  635s
   459   185    0.87588    7  304    0.87405    0.89483  2.38%   260  643s
   482   186    0.87406    9  975    0.87405    0.89459  2.35%   257  648s
   511   190    0.87622    9 1077    0.87405    0.89368  2.25%   252  653s
   545   201     cutoff    8         0.87405    0.89326  2.20%   245  658s
   572   207    0.88109   11  943    0.87405    0.89298  2.17%   241  664s
   604   215    0.88001   10 1016    0.87405    0.89278  2.14%   237  669s
   630   218    0.88126   10  943    0.87405    0.89243  2.10%   236  674s
   675   220    0.88758    9  959    0.87405    0.89155  2.00%   228  680s
   703   228    0.88535   10  926    0.87405    0.89138  1.98%   227  686s
   744   228     cutoff   11         0.87405    0.89119  1.96%   222  692s
   788   222    0.87702   10  897    0.87405    0.89032  1.86%   218  699s
   832   221     cutoff   10         0.87405    0.88893  1.70%   214  706s
   876   219     cutoff   13         0.87405    0.88840  1.64%   211  713s
   915   219    0.87968    9  886    0.87405    0.88829  1.63%   210  720s
   961   212    0.87579   11  983    0.87405    0.88800  1.60%   206  728s
  1003   211    0.88325   10  847    0.87405    0.88752  1.54%   205  736s
  1053   203    0.87946   11  814    0.87405    0.88705  1.49%   203  744s
  1097   205    0.87771   11  740    0.87405    0.88638  1.41%   202  754s
  1150   201     cutoff   12         0.87405    0.88593  1.36%   198  763s
  1206   186     cutoff   11         0.87405    0.88511  1.27%   196  773s
  1282   180     cutoff   10         0.87405    0.88393  1.13%   191  786s
  1308   170     cutoff   12         0.87405    0.88367  1.10%   190  796s
  1368   149    0.87816    9   77    0.87405    0.88308  1.03%   187  806s
  1443   132     cutoff    9         0.87405    0.88137  0.84%   185  818s
  1520   105     cutoff   13         0.87405    0.88053  0.74%   182  831s
  1662    45    0.87504   10   51    0.87405    0.87889  0.55%   173  844s
  1842     0     cutoff   14         0.87405    0.87598  0.22%   162  847s

Cutting planes:
  Gomory: 3
  MIR: 3

Explored 1945 nodes (316619 simplex iterations) in 851.07 seconds (414.98 work units)
Thread count was 4 (of 4 available processors)

Solution count 7: 0.874048 0.872348 0.872068 ... 0.13056
No other solutions better than 0.874048

Optimal solution found (tolerance 1.00e-04)
Best objective 8.740480000000e-01, best bound 8.740480000000e-01, gap 0.0000%
